ilp_joint/output/meiosis_ilp.lp
Maximize
  0.00851490026815588 Z_97_1_0 + 0.4016431820530397 Z_97_1_1
   + 0.00662826092594881 Z_97_1_2 + 0.0126023820960941 Z_97_1_3
   + 8.7561334731178775e-04 Z_112_1_0 + 0.00189342391583197 Z_112_1_1
   + 0.0165512985718668 Z_112_1_2 + 0.3339835342192655 Z_112_1_3
   + 0.0024578408483239 Z_62_1_0 + 0.00372492057063495 Z_62_1_1
   + 0.3147533261198456 Z_62_1_2 + 0.00713029497707235 Z_62_1_3 + [
   0.2834460245775367 Z_97_1_0 * Z_112_1_0
   + 0.00367849908688666 Z_97_1_0 * Z_62_1_0
   + 0.2834460245775367 Z_97_1_1 * Z_112_1_1
   + 0.00367849908688666 Z_97_1_1 * Z_62_1_1
   + 0.2834460245775367 Z_97_1_2 * Z_112_1_2
   + 0.00367849908688666 Z_97_1_2 * Z_62_1_2
   + 0.2834460245775367 Z_97_1_3 * Z_112_1_3
   + 0.00367849908688666 Z_97_1_3 * Z_62_1_3
   + 0.00222222222222222 Z_112_1_0 * Z_62_1_0
   + 0.00222222222222222 Z_112_1_1 * Z_62_1_1
   + 0.00222222222222222 Z_112_1_2 * Z_62_1_2
   + 0.00222222222222222 Z_112_1_3 * Z_62_1_3 ] / 2 
Subject To
 constraint1_971: Z_97_1_0 + Z_97_1_1 + Z_97_1_2 + Z_97_1_3 <= 1
 constraint1_1121: Z_112_1_0 + Z_112_1_1 + Z_112_1_2 + Z_112_1_3 <= 1
 constraint1_621: Z_62_1_0 + Z_62_1_1 + Z_62_1_2 + Z_62_1_3 <= 1
 constraint2_970: Z_97_1_0 <= 1
 constraint2_971: Z_97_1_1 <= 1
 constraint2_972: Z_97_1_2 <= 1
 constraint2_973: Z_97_1_3 <= 1
 constraint2_1120: Z_112_1_0 <= 1
 constraint2_1121: Z_112_1_1 <= 1
 constraint2_1122: Z_112_1_2 <= 1
 constraint2_1123: Z_112_1_3 <= 1
 constraint2_620: Z_62_1_0 <= 1
 constraint2_621: Z_62_1_1 <= 1
 constraint2_622: Z_62_1_2 <= 1
 constraint2_623: Z_62_1_3 <= 1
Bounds
Binaries
 Z_97_1_0 Z_97_1_1 Z_97_1_2 Z_97_1_3 Z_112_1_0 Z_112_1_1 Z_112_1_2
 Z_112_1_3 Z_62_1_0 Z_62_1_1 Z_62_1_2 Z_62_1_3
End
