ilp_joint/output/meiosis_ilp.mps
NAME meiosis_srl_ilp
* Max problem is converted into Min one
ROWS
 N  OBJ
 L  constraint1_2840
 L  constraint1_2841
 L  constraint2_4870
 L  constraint2_4871
 L  constraint2_4872
 L  constraint2_4873
 L  constraint2_2840
 L  constraint2_2841
 L  constraint2_2842
 L  constraint2_2843
 L  constraint2_6330
 L  constraint2_6331
 L  constraint2_6332
 L  constraint2_6333
COLUMNS
    MARKER    'MARKER'                 'INTORG'
    Z_284_0_0  OBJ       -2.6373995271160350e-01
    Z_284_0_0  constraint1_2840  1
    Z_284_0_0  constraint2_2840  1
    Z_284_0_1  OBJ       -2.0583491578639296e-01
    Z_284_0_1  constraint1_2840  1
    Z_284_0_1  constraint2_2841  1
    Z_284_0_2  OBJ       -5.5815211036517091e-02
    Z_284_0_2  constraint1_2840  1
    Z_284_0_2  constraint2_2842  1
    Z_284_0_3  OBJ       -2.5241425548052546e-02
    Z_284_0_3  constraint1_2840  1
    Z_284_0_3  constraint2_2843  1
    Z_284_0_4  OBJ       -3.4936849491743394e-01
    Z_284_0_4  constraint1_2840  1
    Z_284_1_0  OBJ       -3.6360968851537304e-03
    Z_284_1_0  constraint1_2841  1
    Z_284_1_0  constraint2_2840  1
    Z_284_1_1  OBJ       -3.0190551853167421e-03
    Z_284_1_1  constraint1_2841  1
    Z_284_1_1  constraint2_2841  1
    Z_284_1_2  OBJ       -5.7041402191109092e-01
    Z_284_1_2  constraint1_2841  1
    Z_284_1_2  constraint2_2842  1
    Z_284_1_3  OBJ       -1.6368786911586612e-02
    Z_284_1_3  constraint1_2841  1
    Z_284_1_3  constraint2_2843  1
    Z_284_1_4  OBJ       -3.0656203910685204e-01
    Z_284_1_4  constraint1_2841  1
    MARKER    'MARKER'                 'INTEND'
RHS
    RHS1      constraint1_2840  1
    RHS1      constraint1_2841  1
    RHS1      constraint2_4870  1
    RHS1      constraint2_4871  1
    RHS1      constraint2_4872  1
    RHS1      constraint2_4873  1
    RHS1      constraint2_2840  1
    RHS1      constraint2_2841  1
    RHS1      constraint2_2842  1
    RHS1      constraint2_2843  1
    RHS1      constraint2_6330  1
    RHS1      constraint2_6331  1
    RHS1      constraint2_6332  1
    RHS1      constraint2_6333  1
BOUNDS
 UP BND1      Z_284_0_0  1
 UP BND1      Z_284_0_1  1
 UP BND1      Z_284_0_2  1
 UP BND1      Z_284_0_3  1
 UP BND1      Z_284_0_4  1
 UP BND1      Z_284_1_0  1
 UP BND1      Z_284_1_1  1
 UP BND1      Z_284_1_2  1
 UP BND1      Z_284_1_3  1
 UP BND1      Z_284_1_4  1
ENDATA
