ilp_joint/output/meiosis_ilp.sol
# Solution for model meiosis_srl_ilp
# Objective value = 4.7336237244615607e+00
Z_533_0_0 0
Z_533_0_1 0
Z_533_0_2 0
Z_533_0_3 1
Z_533_1_0 0
Z_533_1_1 0
Z_533_1_2 1
Z_533_1_3 0
Z_252_0_0 0
Z_252_0_1 0
Z_252_0_2 0
Z_252_0_3 1
Z_181_0_0 0
Z_181_0_1 0
Z_181_0_2 0
Z_181_0_3 1
Z_284_1_0 0
Z_284_1_1 0
Z_284_1_2 1
Z_284_1_3 0
Z_284_0_0 1
Z_284_0_1 0
Z_284_0_2 0
Z_284_0_3 0
Z_203_0_0 0
Z_203_0_1 0
Z_203_0_2 0
Z_203_0_3 1
Z_402_0_0 0
Z_402_0_1 0
Z_402_0_2 0
Z_402_0_3 1
